(set-info :source |printed by MathSAT|)
(declare-fun call_mesi.ite32.next () Int)
(declare-fun param_etat_me4 () Bool)
(declare-fun call_mesi.ite6 () Int)
(declare-fun param_etat_me1 () Bool)
(declare-fun call_mesi.ite11 () Int)
(declare-fun call_mesi.ite27 () Int)
(declare-fun modified_me.next () Int)
(declare-fun call_mesi.ite31.next () Int)
(declare-fun call_mesi.ite6.next () Int)
(declare-fun call_mesi.ite15.next () Int)
(declare-fun call_mesi.flby2.next () Int)
(declare-fun param_etat_me2 () Bool)
(declare-fun call_mesi.flby () Int)
(declare-fun call_mesi.ite10 () Int)
(declare-fun call_mesi.ite29 () Int)
(declare-fun call_mesi.ite11.next () Int)
(declare-fun param_etat_me3 () Bool)
(declare-fun call_mesi.ite23.next () Int)
(declare-fun invalid_me () Int)
(declare-fun call_mesi.ite7.next () Int)
(declare-fun call_mesi.ite10.next () Int)
(declare-fun call_mesi.ite30 () Int)
(declare-fun call_mesi.ite26.next () Int)
(declare-fun call_mesi.ite13 () Int)
(declare-fun call_mesi.ite24.next () Int)
(declare-fun call_mesi.modified_me.next () Int)
(declare-fun call_mesi.ite18.next () Int)
(declare-fun call_mesi.ite21.next () Int)
(declare-fun call_mesi.ite8.next () Int)
(declare-fun call_mesi.ite31 () Int)
(declare-fun call_Sofar.Sofar () Bool)
(declare-fun call_mesi.ite30.next () Int)
(declare-fun call_mesi.ite19.next () Int)
(declare-fun env.next () Bool)
(declare-fun call_mesi.ite9.next () Int)
(declare-fun call_mesi.ite19 () Int)
(declare-fun exclusive_me () Int)
(declare-fun call_mesi.ite24 () Int)
(declare-fun param_etat_me2.next () Bool)
(declare-fun call_mesi.ite13.next () Int)
(declare-fun env () Bool)
(declare-fun call_Sofar.Sofar.next () Bool)
(declare-fun flby () Bool)
(declare-fun call_mesi.garde_me1.next () Bool)
(declare-fun call_mesi.ite15 () Int)
(declare-fun call_mesi.shared_me.next () Int)
(declare-fun call_mesi.ite25.next () Int)
(declare-fun call_mesi.ite20.next () Int)
(declare-fun call_mesi.ite2 () Int)
(declare-fun call_mesi.ite22.next () Int)
(declare-fun call_mesi.flby2 () Int)
(declare-fun call_mesi.ite29.next () Int)
(declare-fun call_mesi.ite.next () Int)
(declare-fun param_etat_me3.next () Bool)
(declare-fun call_mesi.ite27.next () Int)
(declare-fun call_mesi.ite5 () Int)
(declare-fun call_mesi.ite25 () Int)
(declare-fun call_mesi.garde_me3.next () Bool)
(declare-fun call_mesi.ite4.next () Int)
(declare-fun call_mesi.ite8 () Int)
(declare-fun call_mesi.ite17.next () Int)
(declare-fun call_mesi.ite3.next () Int)
(declare-fun param_etat_me4.next () Bool)
(declare-fun call_mesi.exclusive_me () Int)
(declare-fun call_mesi.ite16.next () Int)
(declare-fun call_mesi.flby4.next () Int)
(declare-fun call_mesi.flby.next () Int)
(declare-fun call_Sofar.flby.next () Bool)
(declare-fun call_mesi.garde_me4.next () Bool)
(declare-fun call_mesi.ite7 () Int)
(declare-fun call_mesi.ite3 () Int)
(declare-fun call_mesi.ite14.next () Int)
(declare-fun exclusive_me.next () Int)
(declare-fun call_mesi.ite21 () Int)
(declare-fun call_Sofar.flby () Bool)
(declare-fun _OK_.next () Bool)
(declare-fun call_mesi.ite () Int)
(declare-fun call_mesi.ite14 () Int)
(declare-fun call_mesi.ite2.next () Int)
(declare-fun shared_me () Int)
(declare-fun call_mesi.ite32 () Int)
(declare-fun call_excludes4.excludes.next () Bool)
(declare-fun flby.next () Bool)
(declare-fun call_mesi.invalid_me () Int)
(declare-fun call_mesi.ite22 () Int)
(declare-fun call_mesi.ite9 () Int)
(declare-fun call_mesi.flby3.next () Int)
(declare-fun call_mesi.ite12.next () Int)
(declare-fun call_mesi.modified_me () Int)
(declare-fun shared_me.next () Int)
(declare-fun call_mesi.ite26 () Int)
(declare-fun call_mesi.garde_me2.next () Bool)
(declare-fun modified_me () Int)
(declare-fun param_etat_me1.next () Bool)
(declare-fun call_mesi.ite5.next () Int)
(declare-fun call_mesi.ite16 () Int)
(declare-fun _OK_ () Bool)
(declare-fun call_mesi.flby3 () Int)
(declare-fun call_mesi.invalid_me.next () Int)
(declare-fun call_mesi.ite23 () Int)
(declare-fun call_mesi.ite28.next () Int)
(declare-fun call_mesi.exclusive_me.next () Int)
(declare-fun call_mesi.flby4 () Int)
(declare-fun call_excludes4.excludes () Bool)
(declare-fun call_mesi.ite18 () Int)
(declare-fun call_mesi.shared_me () Int)
(declare-fun invalid_me.next () Int)
(declare-fun call_mesi.ite17 () Int)
(define-fun .def_1191 () Bool (= call_Sofar.flby.next call_Sofar.Sofar.next))
(define-fun .def_1186 () Bool (and param_etat_me4.next param_etat_me3.next))
(define-fun .def_1181 () Bool (and param_etat_me1.next param_etat_me2.next))
(define-fun .def_1180 () Bool (and param_etat_me3.next param_etat_me1.next))
(define-fun .def_1182 () Bool (or .def_1180 .def_1181))
(define-fun .def_1179 () Bool (and param_etat_me4.next param_etat_me1.next))
(define-fun .def_1183 () Bool (or .def_1179 .def_1182))
(define-fun .def_1178 () Bool (and param_etat_me3.next param_etat_me2.next))
(define-fun .def_1184 () Bool (or .def_1178 .def_1183))
(define-fun .def_1177 () Bool (and param_etat_me4.next param_etat_me2.next))
(define-fun .def_1185 () Bool (or .def_1177 .def_1184))
(define-fun .def_1187 () Bool (or .def_1185 .def_1186))
(define-fun .def_1188 () Bool (not .def_1187))
(define-fun .def_1189 () Bool (= call_excludes4.excludes.next .def_1188))
(define-fun .def_1175 () Bool (= call_mesi.flby4.next call_mesi.invalid_me.next))
(define-fun .def_1173 () Bool (= call_mesi.flby3.next call_mesi.shared_me.next))
(define-fun .def_1171 () Bool (= call_mesi.flby2.next call_mesi.exclusive_me.next))
(define-fun .def_1169 () Bool (= call_mesi.flby.next call_mesi.modified_me.next))
(define-fun .def_1165 () Bool (= call_mesi.ite30.next call_mesi.ite31.next))
(define-fun .def_1166 () Bool (or param_etat_me2.next .def_1165))
(define-fun .def_1162 () Bool (= call_mesi.ite26.next call_mesi.ite31.next))
(define-fun .def_1147 () Bool (not param_etat_me2.next))
(define-fun .def_1163 () Bool (or .def_1147 .def_1162))
(define-fun .def_1159 () Bool (= call_mesi.ite22.next call_mesi.ite23.next))
(define-fun .def_1160 () Bool (or param_etat_me2.next .def_1159))
(define-fun .def_1156 () Bool (= call_mesi.ite18.next call_mesi.ite23.next))
(define-fun .def_1157 () Bool (or .def_1147 .def_1156))
(define-fun .def_1153 () Bool (= call_mesi.ite14.next call_mesi.ite15.next))
(define-fun .def_1154 () Bool (or param_etat_me2.next .def_1153))
(define-fun .def_1150 () Bool (= call_mesi.ite10.next call_mesi.ite15.next))
(define-fun .def_1151 () Bool (or .def_1147 .def_1150))
(define-fun .def_1146 () Bool (= call_mesi.ite2.next call_mesi.ite7.next))
(define-fun .def_1148 () Bool (or .def_1146 .def_1147))
(define-fun .def_1143 () Bool (= call_mesi.ite6.next call_mesi.ite7.next))
(define-fun .def_1145 () Bool (or .def_1143 param_etat_me2.next))
(define-fun .def_1149 () Bool (and .def_1145 .def_1148))
(define-fun .def_1152 () Bool (and .def_1149 .def_1151))
(define-fun .def_1155 () Bool (and .def_1152 .def_1154))
(define-fun .def_1158 () Bool (and .def_1155 .def_1157))
(define-fun .def_1161 () Bool (and .def_1158 .def_1160))
(define-fun .def_1164 () Bool (and .def_1161 .def_1163))
(define-fun .def_1167 () Bool (and .def_1164 .def_1166))
(define-fun .def_1139 () Bool (= call_mesi.ite32.next call_mesi.ite31.next))
(define-fun .def_1140 () Bool (or param_etat_me1.next .def_1139))
(define-fun .def_1135 () Bool (= call_mesi.ite25.next call_mesi.ite32.next))
(define-fun .def_1118 () Bool (not param_etat_me1.next))
(define-fun .def_1136 () Bool (or .def_1118 .def_1135))
(define-fun .def_1132 () Bool (= call_mesi.ite24.next call_mesi.ite23.next))
(define-fun .def_1133 () Bool (or param_etat_me1.next .def_1132))
(define-fun .def_1128 () Bool (= call_mesi.ite17.next call_mesi.ite24.next))
(define-fun .def_1129 () Bool (or .def_1118 .def_1128))
(define-fun .def_1125 () Bool (= call_mesi.ite16.next call_mesi.ite15.next))
(define-fun .def_1126 () Bool (or param_etat_me1.next .def_1125))
(define-fun .def_1121 () Bool (= call_mesi.ite9.next call_mesi.ite16.next))
(define-fun .def_1122 () Bool (or .def_1118 .def_1121))
(define-fun .def_1117 () Bool (= call_mesi.ite.next call_mesi.ite8.next))
(define-fun .def_1119 () Bool (or .def_1117 .def_1118))
(define-fun .def_1114 () Bool (= call_mesi.ite8.next call_mesi.ite7.next))
(define-fun .def_1116 () Bool (or .def_1114 param_etat_me1.next))
(define-fun .def_1120 () Bool (and .def_1116 .def_1119))
(define-fun .def_1123 () Bool (and .def_1120 .def_1122))
(define-fun .def_1127 () Bool (and .def_1123 .def_1126))
(define-fun .def_1130 () Bool (and .def_1127 .def_1129))
(define-fun .def_1134 () Bool (and .def_1130 .def_1133))
(define-fun .def_1137 () Bool (and .def_1134 .def_1136))
(define-fun .def_1141 () Bool (and .def_1137 .def_1140))
(define-fun .def_1111 () Bool (= env.next call_Sofar.Sofar.next))
(define-fun .def_1108 () Bool (= invalid_me.next call_mesi.invalid_me.next))
(define-fun .def_1105 () Bool (= shared_me.next call_mesi.shared_me.next))
(define-fun .def_1102 () Bool (= exclusive_me.next call_mesi.exclusive_me.next))
(define-fun .def_1099 () Bool (= modified_me.next call_mesi.modified_me.next))
(define-fun .def_1094 () Bool (= call_mesi.ite29.next call_mesi.ite30.next))
(define-fun .def_1095 () Bool (or param_etat_me3.next .def_1094))
(define-fun .def_1091 () Bool (= call_mesi.ite27.next call_mesi.ite30.next))
(define-fun .def_1073 () Bool (not param_etat_me3.next))
(define-fun .def_1092 () Bool (or .def_1073 .def_1091))
(define-fun .def_1087 () Bool (= call_mesi.ite21.next call_mesi.ite22.next))
(define-fun .def_1088 () Bool (or param_etat_me3.next .def_1087))
(define-fun .def_1084 () Bool (= call_mesi.ite19.next call_mesi.ite22.next))
(define-fun .def_1085 () Bool (or .def_1073 .def_1084))
(define-fun .def_1080 () Bool (= call_mesi.ite13.next call_mesi.ite14.next))
(define-fun .def_1081 () Bool (or param_etat_me3.next .def_1080))
(define-fun .def_1077 () Bool (= call_mesi.ite11.next call_mesi.ite14.next))
(define-fun .def_1078 () Bool (or .def_1073 .def_1077))
(define-fun .def_1072 () Bool (= call_mesi.ite3.next call_mesi.ite6.next))
(define-fun .def_1074 () Bool (or .def_1072 .def_1073))
(define-fun .def_1069 () Bool (= call_mesi.ite5.next call_mesi.ite6.next))
(define-fun .def_1071 () Bool (or .def_1069 param_etat_me3.next))
(define-fun .def_1075 () Bool (and .def_1071 .def_1074))
(define-fun .def_1079 () Bool (and .def_1075 .def_1078))
(define-fun .def_1082 () Bool (and .def_1079 .def_1081))
(define-fun .def_1086 () Bool (and .def_1082 .def_1085))
(define-fun .def_1089 () Bool (and .def_1086 .def_1088))
(define-fun .def_1093 () Bool (and .def_1089 .def_1092))
(define-fun .def_1096 () Bool (and .def_1093 .def_1095))
(define-fun .def_1065 () Bool (not env.next))
(define-fun .def_1066 () Bool (or flby.next .def_1065))
(define-fun .def_1067 () Bool (= _OK_.next .def_1066))
(define-fun .def_1097 () Bool (and .def_1067 .def_1096))
(define-fun .def_1100 () Bool (and .def_1097 .def_1099))
(define-fun .def_1103 () Bool (and .def_1100 .def_1102))
(define-fun .def_1106 () Bool (and .def_1103 .def_1105))
(define-fun .def_1109 () Bool (and .def_1106 .def_1108))
(define-fun .def_1112 () Bool (and .def_1109 .def_1111))
(define-fun .def_1142 () Bool (and .def_1112 .def_1141))
(define-fun .def_1168 () Bool (and .def_1142 .def_1167))
(define-fun .def_1170 () Bool (and .def_1168 .def_1169))
(define-fun .def_1172 () Bool (and .def_1170 .def_1171))
(define-fun .def_1174 () Bool (and .def_1172 .def_1173))
(define-fun .def_1176 () Bool (and .def_1174 .def_1175))
(define-fun .def_1190 () Bool (and .def_1176 .def_1189))
(define-fun .def_1192 () Bool (and .def_1190 .def_1191))
(define-fun .def_821 () Bool (= call_Sofar.flby call_Sofar.Sofar))
(define-fun .def_816 () Bool (and param_etat_me4 param_etat_me3))
(define-fun .def_811 () Bool (and param_etat_me1 param_etat_me2))
(define-fun .def_810 () Bool (and param_etat_me3 param_etat_me1))
(define-fun .def_812 () Bool (or .def_810 .def_811))
(define-fun .def_809 () Bool (and param_etat_me4 param_etat_me1))
(define-fun .def_813 () Bool (or .def_809 .def_812))
(define-fun .def_808 () Bool (and param_etat_me3 param_etat_me2))
(define-fun .def_814 () Bool (or .def_808 .def_813))
(define-fun .def_807 () Bool (and param_etat_me4 param_etat_me2))
(define-fun .def_815 () Bool (or .def_807 .def_814))
(define-fun .def_817 () Bool (or .def_815 .def_816))
(define-fun .def_818 () Bool (not .def_817))
(define-fun .def_819 () Bool (= call_excludes4.excludes .def_818))
(define-fun .def_805 () Bool (= call_mesi.flby4 call_mesi.invalid_me))
(define-fun .def_803 () Bool (= call_mesi.flby3 call_mesi.shared_me))
(define-fun .def_801 () Bool (= call_mesi.flby2 call_mesi.exclusive_me))
(define-fun .def_799 () Bool (= call_mesi.flby call_mesi.modified_me))
(define-fun .def_795 () Bool (= call_mesi.ite30 call_mesi.ite31))
(define-fun .def_796 () Bool (or param_etat_me2 .def_795))
(define-fun .def_792 () Bool (= call_mesi.ite31 call_mesi.ite26))
(define-fun .def_774 () Bool (not param_etat_me2))
(define-fun .def_793 () Bool (or .def_774 .def_792))
(define-fun .def_788 () Bool (= call_mesi.ite22 call_mesi.ite23))
(define-fun .def_789 () Bool (or param_etat_me2 .def_788))
(define-fun .def_785 () Bool (= call_mesi.ite23 call_mesi.ite18))
(define-fun .def_786 () Bool (or .def_774 .def_785))
(define-fun .def_781 () Bool (= call_mesi.ite14 call_mesi.ite15))
(define-fun .def_782 () Bool (or param_etat_me2 .def_781))
(define-fun .def_778 () Bool (= call_mesi.ite15 call_mesi.ite10))
(define-fun .def_779 () Bool (or .def_774 .def_778))
(define-fun .def_773 () Bool (= call_mesi.ite7 call_mesi.ite2))
(define-fun .def_775 () Bool (or .def_773 .def_774))
(define-fun .def_769 () Bool (= call_mesi.ite6 call_mesi.ite7))
(define-fun .def_771 () Bool (or .def_769 param_etat_me2))
(define-fun .def_776 () Bool (and .def_771 .def_775))
(define-fun .def_780 () Bool (and .def_776 .def_779))
(define-fun .def_783 () Bool (and .def_780 .def_782))
(define-fun .def_787 () Bool (and .def_783 .def_786))
(define-fun .def_790 () Bool (and .def_787 .def_789))
(define-fun .def_794 () Bool (and .def_790 .def_793))
(define-fun .def_797 () Bool (and .def_794 .def_796))
(define-fun .def_765 () Bool (= call_mesi.ite32 call_mesi.ite31))
(define-fun .def_766 () Bool (or param_etat_me1 .def_765))
(define-fun .def_761 () Bool (= call_mesi.ite25 call_mesi.ite32))
(define-fun .def_739 () Bool (not param_etat_me1))
(define-fun .def_762 () Bool (or .def_739 .def_761))
(define-fun .def_756 () Bool (= call_mesi.ite24 call_mesi.ite23))
(define-fun .def_757 () Bool (or param_etat_me1 .def_756))
(define-fun .def_752 () Bool (= call_mesi.ite17 call_mesi.ite24))
(define-fun .def_753 () Bool (or .def_739 .def_752))
(define-fun .def_747 () Bool (= call_mesi.ite16 call_mesi.ite15))
(define-fun .def_748 () Bool (or param_etat_me1 .def_747))
(define-fun .def_743 () Bool (= call_mesi.ite9 call_mesi.ite16))
(define-fun .def_744 () Bool (or .def_739 .def_743))
(define-fun .def_738 () Bool (= call_mesi.ite call_mesi.ite8))
(define-fun .def_740 () Bool (or .def_738 .def_739))
(define-fun .def_735 () Bool (= call_mesi.ite8 call_mesi.ite7))
(define-fun .def_737 () Bool (or .def_735 param_etat_me1))
(define-fun .def_741 () Bool (and .def_737 .def_740))
(define-fun .def_745 () Bool (and .def_741 .def_744))
(define-fun .def_749 () Bool (and .def_745 .def_748))
(define-fun .def_754 () Bool (and .def_749 .def_753))
(define-fun .def_758 () Bool (and .def_754 .def_757))
(define-fun .def_763 () Bool (and .def_758 .def_762))
(define-fun .def_767 () Bool (and .def_763 .def_766))
(define-fun .def_731 () Bool (= env call_Sofar.Sofar))
(define-fun .def_728 () Bool (= invalid_me call_mesi.invalid_me))
(define-fun .def_724 () Bool (= shared_me call_mesi.shared_me))
(define-fun .def_720 () Bool (= exclusive_me call_mesi.exclusive_me))
(define-fun .def_716 () Bool (= modified_me call_mesi.modified_me))
(define-fun .def_710 () Bool (= call_mesi.ite29 call_mesi.ite30))
(define-fun .def_711 () Bool (or param_etat_me3 .def_710))
(define-fun .def_707 () Bool (= call_mesi.ite27 call_mesi.ite30))
(define-fun .def_688 () Bool (not param_etat_me3))
(define-fun .def_708 () Bool (or .def_688 .def_707))
(define-fun .def_702 () Bool (= call_mesi.ite21 call_mesi.ite22))
(define-fun .def_703 () Bool (or param_etat_me3 .def_702))
(define-fun .def_699 () Bool (= call_mesi.ite19 call_mesi.ite22))
(define-fun .def_700 () Bool (or .def_688 .def_699))
(define-fun .def_695 () Bool (= call_mesi.ite13 call_mesi.ite14))
(define-fun .def_696 () Bool (or param_etat_me3 .def_695))
(define-fun .def_692 () Bool (= call_mesi.ite11 call_mesi.ite14))
(define-fun .def_693 () Bool (or .def_688 .def_692))
(define-fun .def_687 () Bool (= call_mesi.ite3 call_mesi.ite6))
(define-fun .def_689 () Bool (or .def_687 .def_688))
(define-fun .def_684 () Bool (= call_mesi.ite5 call_mesi.ite6))
(define-fun .def_686 () Bool (or .def_684 param_etat_me3))
(define-fun .def_690 () Bool (and .def_686 .def_689))
(define-fun .def_694 () Bool (and .def_690 .def_693))
(define-fun .def_697 () Bool (and .def_694 .def_696))
(define-fun .def_701 () Bool (and .def_697 .def_700))
(define-fun .def_704 () Bool (and .def_701 .def_703))
(define-fun .def_709 () Bool (and .def_704 .def_708))
(define-fun .def_712 () Bool (and .def_709 .def_711))
(define-fun .def_680 () Bool (not env))
(define-fun .def_681 () Bool (or flby .def_680))
(define-fun .def_682 () Bool (= _OK_ .def_681))
(define-fun .def_713 () Bool (and .def_682 .def_712))
(define-fun .def_717 () Bool (and .def_713 .def_716))
(define-fun .def_721 () Bool (and .def_717 .def_720))
(define-fun .def_725 () Bool (and .def_721 .def_724))
(define-fun .def_729 () Bool (and .def_725 .def_728))
(define-fun .def_732 () Bool (and .def_729 .def_731))
(define-fun .def_768 () Bool (and .def_732 .def_767))
(define-fun .def_798 () Bool (and .def_768 .def_797))
(define-fun .def_800 () Bool (and .def_798 .def_799))
(define-fun .def_802 () Bool (and .def_800 .def_801))
(define-fun .def_804 () Bool (and .def_802 .def_803))
(define-fun .def_806 () Bool (and .def_804 .def_805))
(define-fun .def_820 () Bool (and .def_806 .def_819))
(define-fun .def_822 () Bool (and .def_820 .def_821))
(define-fun .def_1193 () Bool (and .def_822 .def_1192))
(define-fun .def_1059 () Bool (and call_Sofar.Sofar call_excludes4.excludes.next))
(define-fun .def_1061 () Bool (= .def_1059 call_Sofar.flby.next))
(define-fun .def_1056 () Bool (= call_mesi.ite32.next call_mesi.flby4.next))
(define-fun .def_1052 () Bool (= call_mesi.ite24.next call_mesi.flby3.next))
(define-fun .def_1048 () Bool (= call_mesi.ite16.next call_mesi.flby2.next))
(define-fun .def_1044 () Bool (= call_mesi.ite8.next call_mesi.flby.next))
(define-fun .def_1012 () Bool (<= 1 call_mesi.invalid_me))
(define-fun .def_1039 () Bool (= call_mesi.garde_me4.next .def_1012))
(define-fun .def_1036 () Bool (= call_mesi.ite20.next 0))
(define-fun .def_946 () Bool (not call_mesi.garde_me4.next))
(define-fun .def_1037 () Bool (or .def_946 .def_1036))
(define-fun .def_1033 () Bool (= call_mesi.ite4.next 0))
(define-fun .def_1034 () Bool (or .def_946 .def_1033))
(define-fun .def_1031 () Bool (= call_mesi.ite12.next 1))
(define-fun .def_1032 () Bool (or .def_946 .def_1031))
(define-fun .def_1035 () Bool (and .def_1032 .def_1034))
(define-fun .def_1038 () Bool (and .def_1035 .def_1037))
(define-fun .def_1040 () Bool (and .def_1038 .def_1039))
(define-fun .def_1027 () Bool (<= 1 call_mesi.shared_me))
(define-fun .def_1028 () Bool (= call_mesi.garde_me3.next .def_1027))
(define-fun .def_1024 () Bool (= call_mesi.ite19.next 0))
(define-fun .def_933 () Bool (not call_mesi.garde_me3.next))
(define-fun .def_1025 () Bool (or .def_933 .def_1024))
(define-fun .def_1021 () Bool (= call_mesi.ite3.next 0))
(define-fun .def_1022 () Bool (or .def_933 .def_1021))
(define-fun .def_1019 () Bool (= call_mesi.ite11.next 1))
(define-fun .def_1020 () Bool (or .def_933 .def_1019))
(define-fun .def_1023 () Bool (and .def_1020 .def_1022))
(define-fun .def_1026 () Bool (and .def_1023 .def_1025))
(define-fun .def_1029 () Bool (and .def_1026 .def_1028))
(define-fun .def_1016 () Bool (<= 1 call_mesi.exclusive_me))
(define-fun .def_1017 () Bool (= call_mesi.garde_me2.next .def_1016))
(define-fun .def_1013 () Bool (= call_mesi.garde_me1.next .def_1012))
(define-fun .def_1009 () Bool (= call_mesi.ite.next 0))
(define-fun .def_919 () Bool (not call_mesi.garde_me1.next))
(define-fun .def_1010 () Bool (or .def_919 .def_1009))
(define-fun .def_1007 () Bool (= call_mesi.ite9.next 0))
(define-fun .def_1008 () Bool (or .def_919 .def_1007))
(define-fun .def_1011 () Bool (and .def_1008 .def_1010))
(define-fun .def_1014 () Bool (and .def_1011 .def_1013))
(define-fun .def_1003 () Bool (= call_mesi.invalid_me call_mesi.ite28.next))
(define-fun .def_1004 () Bool (or call_mesi.garde_me4.next .def_1003))
(define-fun .def_1000 () Bool (= call_mesi.invalid_me call_mesi.ite27.next))
(define-fun .def_1001 () Bool (or call_mesi.garde_me3.next .def_1000))
(define-fun .def_995 () Bool (= call_mesi.invalid_me call_mesi.ite26.next))
(define-fun .def_998 () Bool (or call_mesi.garde_me2.next .def_995))
(define-fun .def_888 () Bool (not call_mesi.garde_me2.next))
(define-fun .def_996 () Bool (or .def_888 .def_995))
(define-fun .def_989 () Int (* (- 1) call_mesi.ite25.next))
(define-fun .def_990 () Int (+ call_mesi.invalid_me .def_989))
(define-fun .def_991 () Bool (= .def_990 1))
(define-fun .def_992 () Bool (or .def_919 .def_991))
(define-fun .def_987 () Bool (= call_mesi.invalid_me call_mesi.ite25.next))
(define-fun .def_988 () Bool (or call_mesi.garde_me1.next .def_987))
(define-fun .def_993 () Bool (and .def_988 .def_992))
(define-fun .def_997 () Bool (and .def_993 .def_996))
(define-fun .def_999 () Bool (and .def_997 .def_998))
(define-fun .def_1002 () Bool (and .def_999 .def_1001))
(define-fun .def_1005 () Bool (and .def_1002 .def_1004))
(define-fun .def_982 () Bool (= call_mesi.shared_me call_mesi.ite20.next))
(define-fun .def_983 () Bool (or call_mesi.garde_me4.next .def_982))
(define-fun .def_979 () Bool (= call_mesi.shared_me call_mesi.ite19.next))
(define-fun .def_980 () Bool (or call_mesi.garde_me3.next .def_979))
(define-fun .def_971 () Bool (= call_mesi.shared_me call_mesi.ite18.next))
(define-fun .def_976 () Bool (or call_mesi.garde_me2.next .def_971))
(define-fun .def_973 () Bool (= call_mesi.shared_me call_mesi.ite17.next))
(define-fun .def_974 () Bool (or call_mesi.garde_me1.next .def_973))
(define-fun .def_972 () Bool (or .def_888 .def_971))
(define-fun .def_975 () Bool (and .def_972 .def_974))
(define-fun .def_977 () Bool (and .def_975 .def_976))
(define-fun .def_981 () Bool (and .def_977 .def_980))
(define-fun .def_984 () Bool (and .def_981 .def_983))
(define-fun .def_966 () Bool (= call_mesi.exclusive_me call_mesi.ite12.next))
(define-fun .def_967 () Bool (or call_mesi.garde_me4.next .def_966))
(define-fun .def_963 () Bool (= call_mesi.exclusive_me call_mesi.ite11.next))
(define-fun .def_964 () Bool (or call_mesi.garde_me3.next .def_963))
(define-fun .def_959 () Bool (= call_mesi.exclusive_me call_mesi.ite10.next))
(define-fun .def_960 () Bool (or call_mesi.garde_me2.next .def_959))
(define-fun .def_956 () Bool (= call_mesi.exclusive_me call_mesi.ite9.next))
(define-fun .def_957 () Bool (or call_mesi.garde_me1.next .def_956))
(define-fun .def_951 () Int (* (- 1) call_mesi.ite10.next))
(define-fun .def_952 () Int (+ call_mesi.exclusive_me .def_951))
(define-fun .def_953 () Bool (= .def_952 1))
(define-fun .def_954 () Bool (or .def_888 .def_953))
(define-fun .def_958 () Bool (and .def_954 .def_957))
(define-fun .def_961 () Bool (and .def_958 .def_960))
(define-fun .def_965 () Bool (and .def_961 .def_964))
(define-fun .def_968 () Bool (and .def_965 .def_967))
(define-fun .def_936 () Int (* (- 1) call_mesi.ite28.next))
(define-fun .def_941 () Int (+ call_mesi.invalid_me .def_936))
(define-fun .def_942 () Int (+ call_mesi.shared_me .def_941))
(define-fun .def_943 () Int (+ call_mesi.exclusive_me .def_942))
(define-fun .def_944 () Int (+ call_mesi.modified_me .def_943))
(define-fun .def_945 () Bool (= .def_944 1))
(define-fun .def_947 () Bool (or .def_945 .def_946))
(define-fun .def_923 () Int (* (- 1) call_mesi.ite27.next))
(define-fun .def_928 () Int (+ call_mesi.invalid_me .def_923))
(define-fun .def_929 () Int (+ call_mesi.shared_me .def_928))
(define-fun .def_930 () Int (+ call_mesi.exclusive_me .def_929))
(define-fun .def_931 () Int (+ call_mesi.modified_me .def_930))
(define-fun .def_932 () Bool (= .def_931 1))
(define-fun .def_934 () Bool (or .def_932 .def_933))
(define-fun .def_914 () Int (* (- 1) call_mesi.shared_me))
(define-fun .def_915 () Int (+ .def_914 call_mesi.ite17.next))
(define-fun .def_916 () Int (+ call_mesi.exclusive_me .def_915))
(define-fun .def_917 () Int (+ call_mesi.modified_me .def_916))
(define-fun .def_918 () Bool (= .def_917 (- 1)))
(define-fun .def_920 () Bool (or .def_918 .def_919))
(define-fun .def_903 () Bool (= call_mesi.modified_me call_mesi.ite4.next))
(define-fun .def_905 () Bool (or .def_903 call_mesi.garde_me4.next))
(define-fun .def_899 () Bool (= call_mesi.modified_me call_mesi.ite3.next))
(define-fun .def_901 () Bool (or .def_899 call_mesi.garde_me3.next))
(define-fun .def_895 () Bool (= call_mesi.modified_me call_mesi.ite2.next))
(define-fun .def_896 () Bool (or call_mesi.garde_me2.next .def_895))
(define-fun .def_891 () Bool (= call_mesi.modified_me call_mesi.ite.next))
(define-fun .def_893 () Bool (or .def_891 call_mesi.garde_me1.next))
(define-fun .def_884 () Int (* (- 1) call_mesi.ite2.next))
(define-fun .def_885 () Int (+ call_mesi.modified_me .def_884))
(define-fun .def_886 () Bool (= .def_885 1))
(define-fun .def_889 () Bool (or .def_886 .def_888))
(define-fun .def_894 () Bool (and .def_889 .def_893))
(define-fun .def_897 () Bool (and .def_894 .def_896))
(define-fun .def_902 () Bool (and .def_897 .def_901))
(define-fun .def_906 () Bool (and .def_902 .def_905))
(define-fun .def_921 () Bool (and .def_906 .def_920))
(define-fun .def_935 () Bool (and .def_921 .def_934))
(define-fun .def_948 () Bool (and .def_935 .def_947))
(define-fun .def_879 () Bool (= call_mesi.invalid_me call_mesi.ite29.next))
(define-fun .def_880 () Bool (or param_etat_me4.next .def_879))
(define-fun .def_876 () Bool (= call_mesi.ite28.next call_mesi.ite29.next))
(define-fun .def_855 () Bool (not param_etat_me4.next))
(define-fun .def_877 () Bool (or .def_855 .def_876))
(define-fun .def_871 () Bool (= call_mesi.shared_me call_mesi.ite21.next))
(define-fun .def_872 () Bool (or param_etat_me4.next .def_871))
(define-fun .def_868 () Bool (= call_mesi.ite20.next call_mesi.ite21.next))
(define-fun .def_869 () Bool (or .def_855 .def_868))
(define-fun .def_863 () Bool (= call_mesi.exclusive_me call_mesi.ite13.next))
(define-fun .def_864 () Bool (or param_etat_me4.next .def_863))
(define-fun .def_860 () Bool (= call_mesi.ite12.next call_mesi.ite13.next))
(define-fun .def_861 () Bool (or .def_855 .def_860))
(define-fun .def_854 () Bool (= call_mesi.ite5.next call_mesi.ite4.next))
(define-fun .def_856 () Bool (or .def_854 .def_855))
(define-fun .def_850 () Bool (= call_mesi.modified_me call_mesi.ite5.next))
(define-fun .def_852 () Bool (or .def_850 param_etat_me4.next))
(define-fun .def_857 () Bool (and .def_852 .def_856))
(define-fun .def_862 () Bool (and .def_857 .def_861))
(define-fun .def_865 () Bool (and .def_862 .def_864))
(define-fun .def_870 () Bool (and .def_865 .def_869))
(define-fun .def_873 () Bool (and .def_870 .def_872))
(define-fun .def_878 () Bool (and .def_873 .def_877))
(define-fun .def_881 () Bool (and .def_878 .def_880))
(define-fun .def_833 () Int (* (- 1) invalid_me.next))
(define-fun .def_830 () Int (* (- 1) shared_me.next))
(define-fun .def_839 () Int (+ .def_830 .def_833))
(define-fun .def_827 () Int (* (- 1) exclusive_me.next))
(define-fun .def_840 () Int (+ .def_827 .def_839))
(define-fun .def_825 () Int (* (- 1) modified_me.next))
(define-fun .def_841 () Int (+ .def_825 .def_840))
(define-fun .def_842 () Int (+ invalid_me .def_841))
(define-fun .def_843 () Int (+ shared_me .def_842))
(define-fun .def_844 () Int (+ exclusive_me .def_843))
(define-fun .def_845 () Int (+ modified_me .def_844))
(define-fun .def_846 () Bool (= .def_845 0))
(define-fun .def_848 () Bool (= .def_846 flby.next))
(define-fun .def_882 () Bool (and .def_848 .def_881))
(define-fun .def_949 () Bool (and .def_882 .def_948))
(define-fun .def_969 () Bool (and .def_949 .def_968))
(define-fun .def_985 () Bool (and .def_969 .def_984))
(define-fun .def_1006 () Bool (and .def_985 .def_1005))
(define-fun .def_1015 () Bool (and .def_1006 .def_1014))
(define-fun .def_1018 () Bool (and .def_1015 .def_1017))
(define-fun .def_1030 () Bool (and .def_1018 .def_1029))
(define-fun .def_1041 () Bool (and .def_1030 .def_1040))
(define-fun .def_1045 () Bool (and .def_1041 .def_1044))
(define-fun .def_1049 () Bool (and .def_1045 .def_1048))
(define-fun .def_1053 () Bool (and .def_1049 .def_1052))
(define-fun .def_1057 () Bool (and .def_1053 .def_1056))
(define-fun .def_1062 () Bool (and .def_1057 .def_1061))
(define-fun .def_1194 () Bool (and .def_1062 .def_1193))
(assert .def_1194)
